
n_res = 4;
rcap = [32, 36, 606, 604];
rtype = [1, 1, 2, 2];
n_tasks = 100;
modes =  [{1, 2, 3}, {4, 5, 6}, {7, 8, 9}, {10, 11, 12}, {13, 14, 15}, {16, 17, 18}, {19, 20, 21}, {22, 23, 24}, {25, 26, 27}, {28, 29, 30}, {31, 32, 33}, {34, 35, 36}, {37, 38, 39}, {40, 41, 42}, {43, 44, 45}, {46, 47, 48}, {49, 50, 51}, {52, 53, 54}, {55, 56, 57}, {58, 59, 60}, {61, 62, 63}, {64, 65, 66}, {67, 68, 69}, {70, 71, 72}, {73, 74, 75}, {76, 77, 78}, {79, 80, 81}, {82, 83, 84}, {85, 86, 87}, {88, 89, 90}, {91, 92, 93}, {94, 95, 96}, {97, 98, 99}, {100, 101, 102}, {103, 104, 105}, {106, 107, 108}, {109, 110, 111}, {112, 113, 114}, {115, 116, 117}, {118, 119, 120}, {121, 122, 123}, {124, 125, 126}, {127, 128, 129}, {130, 131, 132}, {133, 134, 135}, {136, 137, 138}, {139, 140, 141}, {142, 143, 144}, {145, 146, 147}, {148, 149, 150}, {151, 152, 153}, {154, 155, 156}, {157, 158, 159}, {160, 161, 162}, {163, 164, 165}, {166, 167, 168}, {169, 170, 171}, {172, 173, 174}, {175, 176, 177}, {178, 179, 180}, {181, 182, 183}, {184, 185, 186}, {187, 188, 189}, {190, 191, 192}, {193, 194, 195}, {196, 197, 198}, {199, 200, 201}, {202, 203, 204}, {205, 206, 207}, {208, 209, 210}, {211, 212, 213}, {214, 215, 216}, {217, 218, 219}, {220, 221, 222}, {223, 224, 225}, {226, 227, 228}, {229, 230, 231}, {232, 233, 234}, {235, 236, 237}, {238, 239, 240}, {241, 242, 243}, {244, 245, 246}, {247, 248, 249}, {250, 251, 252}, {253, 254, 255}, {256, 257, 258}, {259, 260, 261}, {262, 263, 264}, {265, 266, 267}, {268, 269, 270}, {271, 272, 273}, {274, 275, 276}, {277, 278, 279}, {280, 281, 282}, {283, 284, 285}, {286, 287, 288}, {289, 290, 291}, {292, 293, 294}, {295, 296, 297}, {298, 299, 300}];
succ =  [{41, 40, 38, 36, 34, 29, 28, 26, 25, 24, 21, 19, 16}, {42, 41, 35, 33, 29, 28, 23, 18, 13, 11}, {55, 51, 48, 45, 41, 38, 37, 29, 28, 26, 25, 23}, {60, 55, 51, 39, 37, 36, 35, 32, 30, 25, 23}, {55, 54, 48, 46, 44, 41, 40, 39, 37, 30, 28, 23}, {55, 54, 48, 46, 41, 30, 29, 23}, {47, 46, 42, 38, 32, 31, 30, 29}, {54, 48, 44, 28, 13}, {62, 60, 53, 51, 48, 47, 46, 44, 41, 39, 38, 35, 31}, {71, 59, 55, 53, 52, 51, 47, 46, 41, 36, 30, 29}, {55, 53, 51, 48, 39, 36, 30, 25}, {60, 53, 46, 32, 24}, {79, 73, 71, 59, 55, 52, 51, 47, 39, 38, 30}, {60, 56, 55, 51, 40, 23}, {54, 50, 48, 44, 23}, {71, 60, 57, 55, 52, 51, 48, 45, 43, 39, 37}, {79, 74, 73, 71, 69, 67, 60, 59, 57, 55, 53, 52, 51, 50, 45, 43}, {79, 73, 71, 69, 67, 61, 59, 57, 53, 52, 50, 48, 45, 38}, {71, 67, 64, 62, 61, 57, 56, 54, 52, 50, 49, 48, 37}, {73, 55, 53, 51, 50, 46, 44, 35}, {71, 70, 69, 61, 60, 59, 57, 55, 54, 52, 50, 47, 45}, {79, 73, 63, 55, 53, 50, 48, 44, 43, 38}, {85, 79, 69, 59, 52, 47, 43, 34}, {79, 73, 71, 61, 52, 30}, {71, 64, 61, 57, 54, 50, 49, 47, 46, 44}, {79, 74, 71, 70, 61, 60, 58, 57, 53, 49, 47, 44}, {74, 69, 62, 57, 56, 55, 53, 50, 48, 47, 43}, {74, 71, 69, 64, 61, 60, 57, 50, 47, 43}, {79, 73, 72, 65, 63, 60, 57, 50, 39}, {74, 72, 69, 65, 57, 50, 45, 43}, {74, 73, 72, 71, 70, 69, 65, 61, 59, 55, 50, 49}, {79, 73, 64, 61, 57, 49, 48, 44}, {79, 76, 72, 70, 69, 68, 67, 63, 58, 57, 45}, {100, 97, 78, 74, 71, 67, 66, 64, 63, 62, 61, 57, 53}, {98, 85, 79, 78, 74, 71, 70, 65, 64, 57, 52}, {99, 84, 79, 78, 76, 74, 72, 70, 69, 68, 67, 65, 63, 62}, {98, 85, 81, 79, 78, 77, 73, 70, 69, 66, 53}, {98, 83, 82, 78, 77, 74, 70, 68, 66, 64, 56}, {83, 78, 76, 69, 68, 67, 64, 61, 56}, {100, 98, 85, 84, 81, 78, 76, 73, 72, 69, 64, 57}, {99, 98, 95, 83, 82, 78, 77, 76, 74, 69, 68, 63, 58}, {98, 84, 83, 76, 72, 69, 64, 58, 57}, {100, 99, 78, 70, 58, 49}, {78, 76, 69, 67, 59, 56}, {97, 94, 82, 78, 64, 62, 56}, {100, 98, 96, 95, 85, 80, 78, 77, 76, 69, 58}, {99, 84, 83, 81, 72, 68, 66, 65, 63}, {99, 97, 95, 93, 91, 89, 85, 82, 81, 78, 77, 76, 75, 65}, {98, 97, 95, 90, 83, 81, 80, 77, 76, 68, 66}, {100, 98, 96, 90, 80, 78, 77, 76, 58}, {100, 98, 97, 93, 85, 81, 76, 66, 65, 63}, {100, 84, 82, 81, 80, 76, 68, 66, 63}, {99, 83, 76, 75, 72, 68, 65}, {100, 98, 97, 96, 95, 91, 90, 88, 87, 74, 73}, {100, 98, 97, 94, 93, 91, 89, 75, 64}, {100, 99, 95, 93, 92, 90, 89, 88, 85, 84, 81, 80}, {99, 96, 94, 93, 89, 82, 77, 75}, {97, 93, 92, 89, 81, 66}, {99, 97, 95, 90, 89, 66}, {92, 91, 90, 89, 80, 75}, {95, 92, 84, 82, 80}, {98, 88, 83, 77}, {92, 90, 89, 88, 87, 86}, {96, 95, 90, 87, 80}, {94, 90, 88, 87, 80}, {94, 91, 87, 75}, {98, 96, 90, 75}, {96, 94, 93, 89, 86}, {97, 90, 89, 87, 86}, {97, 93, 88, 87, 86}, {90, 89, 88, 86}, {95, 91, 82}, {93, 89, 80}, {92, 80}, {88, 86}, {88, 87}, {92, 86}, {87, 86}, {80}, {86}, {87}, {87}, {89}, {91}, {87}, {}, {}, {}, {}, {}, {}, {}, {}, {}, {}, {}, {}, {}, {}, {}];
n_opt = 300;
dur = [2, 5, 9, 2, 3, 9, 1, 3, 5, 3, 6, 10, 5, 7, 10, 2, 6, 7, 6, 8, 9, 4, 6, 8, 3, 5, 10, 1, 3, 6, 3, 4, 6, 1, 5, 8, 1, 7, 8, 1, 6, 7, 3, 9, 10, 1, 9, 10, 1, 4, 6, 4, 5, 10, 1, 2, 7, 2, 3, 9, 5, 7, 8, 5, 7, 9, 4, 6, 10, 5, 9, 10, 2, 3, 5, 1, 6, 7, 7, 9, 10, 2, 3, 6, 4, 6, 10, 4, 5, 6, 1, 4, 9, 5, 7, 8, 1, 3, 8, 1, 5, 8, 5, 6, 10, 2, 6, 10, 3, 4, 6, 1, 2, 3, 4, 9, 10, 2, 7, 8, 6, 7, 10, 5, 8, 10, 2, 3, 4, 1, 7, 8, 1, 7, 8, 4, 6, 7, 3, 4, 5, 7, 9, 10, 1, 6, 9, 3, 4, 7, 3, 7, 9, 4, 5, 7, 2, 3, 7, 3, 9, 10, 1, 4, 10, 1, 3, 4, 2, 3, 8, 5, 9, 10, 4, 5, 7, 1, 2, 8, 1, 3, 8, 5, 6, 8, 2, 4, 10, 6, 7, 8, 2, 7, 8, 4, 5, 10, 3, 5, 10, 5, 6, 9, 1, 2, 3, 3, 5, 6, 6, 9, 10, 3, 4, 5, 3, 5, 7, 2, 3, 8, 2, 3, 4, 1, 6, 9, 5, 6, 10, 2, 5, 6, 1, 2, 3, 1, 6, 8, 4, 6, 7, 6, 7, 8, 3, 5, 7, 4, 7, 9, 7, 8, 10, 5, 6, 7, 3, 4, 7, 3, 7, 9, 2, 7, 8, 2, 4, 10, 2, 4, 7, 3, 8, 10, 1, 2, 9, 3, 6, 9, 3, 7, 8, 8, 9, 10, 4, 5, 10, 2, 3, 4, 7, 9, 10, 4, 7, 9];
rreq = [|2, 1, 1, 4, 3, 3, 5, 4, 4, 5, 2, 1, 3, 2, 2, 5, 4, 3, 4, 4, 4, 4, 3, 3, 2, 2, 2, 4, 4, 4, 4, 3, 3, 2, 2, 2, 2, 2, 1, 2, 2, 1, 2, 2, 2, 5, 3, 2, 1, 1, 1, 4, 4, 4, 5, 2, 2, 3, 1, 1, 5, 5, 5, 2, 2, 2, 4, 2, 2, 4, 4, 3, 2, 2, 2, 3, 2, 2, 3, 3, 2, 3, 3, 2, 4, 3, 3, 4, 3, 2, 3, 3, 3, 2, 1, 1, 4, 3, 2, 3, 3, 2, 3, 2, 2, 5, 4, 3, 2, 1, 1, 3, 2, 1, 4, 2, 2, 4, 4, 3, 4, 3, 2, 4, 2, 2, 3, 3, 2, 2, 2, 1, 3, 3, 3, 1, 1, 1, 3, 3, 3, 3, 1, 1, 1, 1, 1, 4, 4, 2, 2, 2, 2, 3, 2, 2, 5, 2, 1, 5, 3, 3, 3, 2, 2, 2, 1, 1, 5, 3, 2, 5, 4, 3, 3, 2, 2, 3, 3, 2, 4, 4, 4, 3, 2, 2, 5, 5, 5, 2, 1, 1, 5, 4, 3, 3, 3, 3, 4, 2, 2, 4, 3, 2, 3, 3, 3, 5, 3, 3, 2, 2, 1, 4, 3, 2, 3, 3, 3, 4, 3, 1, 4, 2, 2, 4, 3, 1, 5, 5, 5, 4, 4, 4, 3, 3, 1, 5, 3, 2, 2, 2, 2, 3, 3, 1, 5, 3, 3, 3, 2, 1, 5, 3, 3, 3, 2, 2, 3, 3, 3, 4, 3, 3, 4, 4, 4, 2, 2, 2, 3, 3, 1, 1, 1, 1, 5, 4, 3, 1, 1, 1, 5, 3, 3, 5, 4, 4, 4, 3, 3, 5, 4, 4, 4, 3, 1, 3, 2, 2
 |4, 4, 3, 4, 2, 2, 4, 4, 3, 4, 3, 2, 4, 3, 3, 4, 3, 3, 5, 4, 4, 5, 2, 2, 3, 2, 2, 4, 4, 4, 3, 3, 2, 4, 2, 2, 4, 3, 3, 3, 3, 3, 5, 3, 2, 4, 3, 3, 5, 3, 3, 3, 2, 1, 4, 2, 2, 4, 4, 2, 4, 4, 4, 3, 2, 2, 5, 3, 3, 2, 2, 2, 3, 3, 3, 2, 2, 2, 3, 2, 1, 2, 2, 2, 2, 1, 1, 2, 2, 2, 3, 2, 1, 5, 4, 4, 4, 3, 3, 3, 2, 2, 3, 3, 1, 4, 2, 1, 3, 2, 1, 4, 3, 3, 3, 1, 1, 5, 4, 3, 4, 4, 4, 4, 3, 3, 4, 2, 2, 1, 1, 1, 3, 1, 1, 2, 2, 1, 4, 2, 1, 1, 1, 1, 5, 4, 4, 2, 2, 2, 4, 3, 3, 3, 1, 1, 1, 1, 1, 3, 3, 3, 1, 1, 1, 3, 3, 3, 4, 2, 1, 3, 2, 2, 4, 3, 3, 4, 3, 2, 3, 3, 2, 1, 1, 1, 5, 3, 3, 4, 4, 2, 5, 4, 4, 3, 1, 1, 2, 2, 2, 4, 4, 4, 3, 3, 2, 5, 5, 5, 4, 4, 4, 4, 2, 2, 3, 3, 3, 1, 1, 1, 4, 2, 2, 4, 4, 2, 3, 2, 2, 4, 2, 2, 2, 2, 1, 4, 3, 1, 3, 3, 3, 3, 2, 2, 4, 3, 3, 1, 1, 1, 3, 2, 1, 3, 3, 3, 1, 1, 1, 4, 3, 3, 4, 4, 4, 3, 3, 3, 3, 3, 3, 3, 3, 1, 1, 1, 1, 2, 1, 1, 2, 2, 1, 4, 2, 1, 4, 3, 2, 4, 4, 3, 5, 4, 4, 4, 3, 2
 |7, 6, 4, 7, 7, 7, 6, 5, 5, 7, 5, 4, 2, 1, 1, 7, 4, 3, 7, 6, 4, 10, 6, 2, 5, 4, 4, 9, 9, 7, 5, 5, 5, 3, 3, 1, 7, 5, 2, 3, 3, 3, 9, 9, 7, 3, 2, 2, 5, 3, 3, 3, 2, 2, 5, 4, 4, 7, 7, 7, 6, 6, 4, 6, 5, 1, 10, 8, 8, 2, 2, 2, 6, 6, 4, 4, 4, 4, 6, 6, 3, 4, 3, 2, 7, 4, 2, 7, 7, 5, 8, 7, 7, 8, 7, 7, 3, 3, 2, 8, 5, 4, 8, 7, 7, 6, 3, 2, 6, 4, 2, 10, 8, 7, 10, 7, 7, 9, 9, 8, 9, 5, 4, 8, 5, 4, 5, 3, 3, 9, 9, 9, 5, 4, 4, 3, 3, 3, 7, 6, 5, 9, 5, 3, 5, 4, 3, 6, 6, 6, 8, 7, 7, 9, 6, 3, 1, 1, 1, 5, 3, 2, 3, 3, 3, 5, 5, 5, 10, 9, 9, 1, 1, 1, 7, 6, 4, 8, 8, 7, 7, 5, 5, 6, 6, 6, 8, 7, 7, 8, 7, 5, 8, 7, 7, 10, 8, 6, 4, 2, 2, 5, 5, 4, 4, 3, 3, 10, 9, 8, 7, 7, 5, 6, 6, 1, 9, 3, 2, 8, 7, 3, 6, 5, 5, 9, 9, 9, 8, 4, 4, 7, 3, 1, 9, 8, 7, 10, 10, 10, 6, 3, 1, 5, 4, 4, 5, 4, 3, 10, 8, 7, 4, 4, 4, 6, 6, 6, 10, 4, 3, 9, 5, 3, 9, 9, 8, 10, 10, 10, 5, 4, 4, 8, 6, 5, 5, 3, 3, 8, 8, 6, 3, 3, 3, 4, 4, 4, 9, 5, 1, 8, 6, 5, 6, 4, 4, 8, 7, 7
 |10, 5, 4, 3, 3, 2, 4, 4, 4, 10, 6, 5, 7, 5, 3, 7, 6, 5, 5, 4, 2, 10, 7, 5, 7, 6, 5, 2, 1, 1, 6, 6, 5, 7, 7, 2, 8, 7, 6, 4, 3, 3, 6, 4, 3, 6, 4, 3, 9, 9, 8, 5, 4, 4, 8, 6, 5, 5, 4, 1, 8, 7, 6, 10, 6, 6, 9, 8, 7, 5, 4, 3, 7, 6, 2, 10, 6, 5, 10, 9, 9, 4, 2, 2, 8, 8, 6, 8, 7, 7, 7, 7, 5, 7, 6, 5, 9, 4, 4, 6, 5, 3, 6, 5, 3, 4, 3, 2, 6, 5, 5, 7, 5, 3, 8, 7, 6, 9, 7, 5, 5, 4, 4, 4, 3, 3, 9, 8, 5, 9, 8, 8, 6, 4, 2, 7, 6, 6, 3, 3, 2, 10, 9, 9, 6, 6, 6, 9, 8, 8, 7, 3, 1, 8, 8, 8, 6, 6, 4, 8, 5, 3, 6, 6, 5, 2, 2, 1, 5, 3, 2, 8, 6, 6, 6, 5, 5, 6, 3, 2, 9, 5, 1, 8, 7, 6, 3, 3, 1, 7, 5, 3, 5, 3, 3, 9, 9, 9, 2, 2, 1, 8, 6, 3, 9, 8, 6, 4, 4, 4, 10, 8, 8, 8, 7, 7, 7, 7, 3, 8, 5, 5, 8, 7, 6, 8, 6, 5, 9, 7, 5, 3, 3, 3, 2, 2, 2, 4, 3, 2, 3, 3, 3, 8, 8, 7, 3, 3, 2, 7, 6, 4, 5, 2, 1, 5, 5, 4, 8, 5, 5, 6, 5, 5, 8, 7, 6, 9, 8, 6, 5, 4, 3, 9, 7, 5, 9, 7, 6, 2, 1, 1, 7, 6, 6, 9, 8, 8, 7, 7, 7, 1, 1, 1, 7, 6, 4, 5, 5, 3|];